(declare-fun N () Int)
(declare-fun i () Int)
(declare-fun j () Int)
(declare-fun j_0 () Int)
(declare-fun j_1 () Int)
(declare-fun k_0 () Int)
(declare-fun k_1 () Int)

(assert (and
  (and
    (<= (+ i 1) k_0)
    (<= j_0 (- N 1))
    (<= j_1 (- N 1))
    (<= (+ i 2) j_1)
    (<= (+ i 1) j_0)
    (<= k_0 (- j 1))
    (<= k_1 (- j 1))
    (<= (- (+ N 1) 1) 0)
    (<= (- N 1) i)
    (<= (+ i 2) k_1)
    (<= (+ i 1) 0)
  )
  (forall ((j_0 Int) (j_1 Int) (k_0 Int) (k_1 Int))
    (or
      (not (<= j_0 (- N 1)))
      (not (<= j_1 (- N 1)))
      (not (<= (+ i 2) j_1))
      (not (<= k_0 (- j 1)))
      (not (<= (+ i 1) j_0))
      (and
        (or
          (not (= i (+ i 1)))
          (not (= k_0 j_1))
        )
        (or
          (not (= i (+ i 1)))
          (not (= j_0 j_1))
        )
        (or
          (not (= j_0 j_1))
          (not (= (+ k_0 1) (+ i 1)))
        )
        (or
          (not (= j_0 j_1))
          (not (= i (+ k_1 1)))
        )
        (or
          (not (= i (+ i 1)))
          (not (= j_0 k_1))
        )
      )
      (not (<= k_1 (- j 1)))
      (not (<= (+ i 1) k_0))
      (not (<= (+ i 2) k_1))
    )
  )
  (forall ((j_0 Int) (j_1 Int) (k_0 Int))
    (or
      (not (<= j_0 (- N 1)))
      (not (<= 1 j_1))
      (not (<= j_1 (- N 1)))
      (not (<= (+ i 2) j_1))
      (not (<= k_0 (- j 1)))
      (not (<= (+ i 1) j_0))
      (not (<= (- j_1 1) (+ i 1)))
      (not (<= (+ i 1) k_0))
      (not (< (+ i 2) N))
      (and
        (or
          (not (= i (+ i 1)))
          (not (= k_0 j_1))
        )
        (or
          (not (= j_0 j_1))
          (not (= (+ k_0 1) (+ i 1)))
        )
        (or
          (not (= j_0 (- j_1 1)))
          (not (= i (+ i 2)))
        )
        (or
          (not (= i (+ i 1)))
          (not (= j_0 j_1))
        )
      )
    )
  )
  (forall ((j_0 Int) (j_1 Int) (k_0 Int))
    (or
      (not (<= j_0 (- N 1)))
      (not (<= 1 j_1))
      (not (< (+ i 1) (- j_1 1)))
      (not (<= j_1 (- N 1)))
      (not (<= (+ i 2) j_1))
      (not (<= k_0 (- j 1)))
      (not (<= (+ i 1) j_0))
      (not (<= (+ i 1) k_0))
      (not (< (+ i 2) N))
      (and
        (or
          (not (= i (+ i 1)))
          (not (= k_0 j_1))
        )
        (or
          (not (= j_0 j_1))
          (not (= (+ k_0 1) (+ i 1)))
        )
        (or
          (not (= j_0 (- j_1 1)))
          (not (= i (+ i 2)))
        )
        (or
          (not (= i (+ i 1)))
          (not (= j_0 j_1))
        )
      )
    )
  )
  (forall ((j_0 Int) (j_1 Int) (k_0 Int))
    (or
      (and
        (or
          (not (= j_0 j_1))
          (not (= i (+ i 2)))
        )
        (or
          (not (= i (+ i 1)))
          (not (= k_0 j_1))
        )
        (or
          (not (= i (+ i 1)))
          (not (= j_0 j_1))
        )
        (or
          (not (= j_0 j_1))
          (not (= (+ k_0 1) (+ i 1)))
        )
      )
      (not (<= j_0 (- N 1)))
      (not (<= j_1 (- N 1)))
      (not (<= (+ i 2) j_1))
      (not (<= k_0 (- j 1)))
      (not (<= (+ i 1) j_0))
      (not (<= (+ i 1) k_0))
      (not (< (+ i 2) N))
    )
  )
  (forall ((j_0 Int) (j_1 Int) (k_0 Int))
    (or
      (not (<= j_0 (- N 1)))
      (not (<= 1 j_1))
      (not (<= j_1 (- N 1)))
      (not (<= (+ i 2) j_1))
      (not (<= k_0 (- j 1)))
      (not (<= (+ i 1) j_0))
      (and
        (or
          (not (= i (+ i 1)))
          (not (= k_0 j_1))
        )
        (or
          (not (= i (+ i 1)))
          (not (= j_0 j_1))
        )
        (or
          (not (= j_0 j_1))
          (not (= (+ k_0 1) (+ i 1)))
        )
        (or
          (not (= i (+ i 1)))
          (not (= j_0 (- j_1 1)))
        )
      )
      (not (<= (+ i 1) k_0))
    )
  )
  (forall ((j_0 Int) (j_1 Int) (k_1 Int))
    (or
      (not (<= j_0 (- N 1)))
      (not (<= 1 j_0))
      (not (<= j_1 (- N 1)))
      (not (<= (+ i 2) j_1))
      (not (<= (- j_0 1) i))
      (not (<= (+ i 1) j_0))
      (not (< (+ i 1) N))
      (not (<= k_1 (- j 1)))
      (and
        (or
          (not (= i (+ i 1)))
          (not (= j_0 k_1))
        )
        (not (= (- j_0 1) j_1))
        (or
          (not (= i (+ i 1)))
          (not (= j_0 j_1))
        )
        (or
          (not (= j_0 j_1))
          (not (= i (+ k_1 1)))
        )
      )
      (not (<= (+ i 2) k_1))
    )
  )
  (forall ((j_0 Int) (j_1 Int))
    (or
      (not (<= j_0 (- N 1)))
      (not (<= 1 j_1))
      (not (<= 1 j_0))
      (not (<= j_1 (- N 1)))
      (not (<= (+ i 2) j_1))
      (not (<= (- j_0 1) i))
      (not (<= (+ i 1) j_0))
      (not (< (+ i 1) N))
      (not (<= (- j_1 1) (+ i 1)))
      (and
        (not (= (- j_0 1) j_1))
        (or
          (not (= i (+ i 1)))
          (not (= j_0 j_1))
        )
        (or
          (not (= j_0 (- j_1 1)))
          (not (= i (+ i 2)))
        )
      )
      (not (< (+ i 2) N))
    )
  )
  (forall ((j_0 Int) (j_1 Int))
    (or
      (not (<= j_0 (- N 1)))
      (not (<= 1 j_1))
      (not (<= 1 j_0))
      (not (< (+ i 1) (- j_1 1)))
      (not (<= j_1 (- N 1)))
      (not (<= (+ i 2) j_1))
      (not (<= (- j_0 1) i))
      (not (<= (+ i 1) j_0))
      (not (< (+ i 1) N))
      (and
        (not (= (- j_0 1) j_1))
        (or
          (not (= i (+ i 1)))
          (not (= j_0 j_1))
        )
        (or
          (not (= j_0 (- j_1 1)))
          (not (= i (+ i 2)))
        )
      )
      (not (< (+ i 2) N))
    )
  )
  (forall ((j_0 Int) (j_1 Int))
    (or
      (not (<= j_0 (- N 1)))
      (not (<= 1 j_0))
      (not (<= j_1 (- N 1)))
      (not (<= (+ i 2) j_1))
      (not (<= (- j_0 1) i))
      (and
        (or
          (not (= j_0 j_1))
          (not (= i (+ i 2)))
        )
        (not (= (- j_0 1) j_1))
        (or
          (not (= i (+ i 1)))
          (not (= j_0 j_1))
        )
      )
      (not (<= (+ i 1) j_0))
      (not (< (+ i 1) N))
      (not (< (+ i 2) N))
    )
  )
  (forall ((j_0 Int) (j_1 Int))
    (or
      (and
        (not (= (- j_0 1) j_1))
        (or
          (not (= i (+ i 1)))
          (not (= j_0 j_1))
        )
        (or
          (not (= i (+ i 1)))
          (not (= j_0 (- j_1 1)))
        )
      )
      (not (<= j_0 (- N 1)))
      (not (<= 1 j_1))
      (not (<= 1 j_0))
      (not (<= j_1 (- N 1)))
      (not (<= (+ i 2) j_1))
      (not (<= (- j_0 1) i))
      (not (<= (+ i 1) j_0))
      (not (< (+ i 1) N))
    )
  )
  (forall ((j_0 Int) (j_1 Int) (k_1 Int))
    (or
      (not (< i (- j_0 1)))
      (not (<= j_0 (- N 1)))
      (not (<= 1 j_0))
      (not (<= j_1 (- N 1)))
      (not (<= (+ i 2) j_1))
      (not (<= (+ i 1) j_0))
      (not (< (+ i 1) N))
      (not (<= k_1 (- j 1)))
      (and
        (or
          (not (= i (+ i 1)))
          (not (= j_0 k_1))
        )
        (not (= (- j_0 1) j_1))
        (or
          (not (= i (+ i 1)))
          (not (= j_0 j_1))
        )
        (or
          (not (= j_0 j_1))
          (not (= i (+ k_1 1)))
        )
      )
      (not (<= (+ i 2) k_1))
    )
  )
  (forall ((j_0 Int) (j_1 Int))
    (or
      (not (< i (- j_0 1)))
      (not (<= j_0 (- N 1)))
      (not (<= 1 j_1))
      (not (<= 1 j_0))
      (not (<= j_1 (- N 1)))
      (not (<= (+ i 2) j_1))
      (not (<= (+ i 1) j_0))
      (not (< (+ i 1) N))
      (not (<= (- j_1 1) (+ i 1)))
      (and
        (not (= (- j_0 1) j_1))
        (or
          (not (= i (+ i 1)))
          (not (= j_0 j_1))
        )
        (or
          (not (= j_0 (- j_1 1)))
          (not (= i (+ i 2)))
        )
      )
      (not (< (+ i 2) N))
    )
  )
  (forall ((j_0 Int) (j_1 Int))
    (or
      (not (< i (- j_0 1)))
      (not (<= j_0 (- N 1)))
      (not (<= 1 j_1))
      (not (<= 1 j_0))
      (not (< (+ i 1) (- j_1 1)))
      (not (<= j_1 (- N 1)))
      (not (<= (+ i 2) j_1))
      (not (<= (+ i 1) j_0))
      (not (< (+ i 1) N))
      (and
        (not (= (- j_0 1) j_1))
        (or
          (not (= i (+ i 1)))
          (not (= j_0 j_1))
        )
        (or
          (not (= j_0 (- j_1 1)))
          (not (= i (+ i 2)))
        )
      )
      (not (< (+ i 2) N))
    )
  )
  (forall ((j_0 Int) (j_1 Int))
    (or
      (not (< i (- j_0 1)))
      (not (<= j_0 (- N 1)))
      (not (<= 1 j_0))
      (not (<= j_1 (- N 1)))
      (not (<= (+ i 2) j_1))
      (and
        (or
          (not (= j_0 j_1))
          (not (= i (+ i 2)))
        )
        (not (= (- j_0 1) j_1))
        (or
          (not (= i (+ i 1)))
          (not (= j_0 j_1))
        )
      )
      (not (<= (+ i 1) j_0))
      (not (< (+ i 1) N))
      (not (< (+ i 2) N))
    )
  )
  (forall ((j_0 Int) (j_1 Int))
    (or
      (and
        (not (= (- j_0 1) j_1))
        (or
          (not (= i (+ i 1)))
          (not (= j_0 j_1))
        )
        (or
          (not (= i (+ i 1)))
          (not (= j_0 (- j_1 1)))
        )
      )
      (not (< i (- j_0 1)))
      (not (<= j_0 (- N 1)))
      (not (<= 1 j_1))
      (not (<= 1 j_0))
      (not (<= j_1 (- N 1)))
      (not (<= (+ i 2) j_1))
      (not (<= (+ i 1) j_0))
      (not (< (+ i 1) N))
    )
  )
  (forall ((j_0 Int) (j_1 Int) (k_1 Int))
    (or
      (not (<= j_0 (- N 1)))
      (not (<= j_1 (- N 1)))
      (not (<= (+ i 2) j_1))
      (not (<= (+ i 1) j_0))
      (not (< (+ i 1) N))
      (not (<= (+ i 2) k_1))
      (not (<= k_1 (- j 1)))
      (and
        (or
          (not (= i (+ i 1)))
          (not (= j_0 k_1))
        )
        (not (= j_0 j_1))
        (or
          (not (= i (+ i 1)))
          (not (= j_0 j_1))
        )
        (or
          (not (= j_0 j_1))
          (not (= i (+ k_1 1)))
        )
      )
    )
  )
  (forall ((j_0 Int) (j_1 Int))
    (or
      (not (<= j_0 (- N 1)))
      (not (<= 1 j_1))
      (not (<= j_1 (- N 1)))
      (not (<= (+ i 2) j_1))
      (not (<= (+ i 1) j_0))
      (not (< (+ i 1) N))
      (not (<= (- j_1 1) (+ i 1)))
      (and
        (not (= j_0 j_1))
        (or
          (not (= i (+ i 1)))
          (not (= j_0 j_1))
        )
        (or
          (not (= j_0 (- j_1 1)))
          (not (= i (+ i 2)))
        )
      )
      (not (< (+ i 2) N))
    )
  )
  (forall ((j_0 Int) (j_1 Int))
    (or
      (not (<= j_0 (- N 1)))
      (not (<= 1 j_1))
      (not (< (+ i 1) (- j_1 1)))
      (not (<= j_1 (- N 1)))
      (not (<= (+ i 2) j_1))
      (not (<= (+ i 1) j_0))
      (not (< (+ i 1) N))
      (and
        (not (= j_0 j_1))
        (or
          (not (= i (+ i 1)))
          (not (= j_0 j_1))
        )
        (or
          (not (= j_0 (- j_1 1)))
          (not (= i (+ i 2)))
        )
      )
      (not (< (+ i 2) N))
    )
  )
  (forall ((j_0 Int) (j_1 Int))
    (or
      (not (<= j_0 (- N 1)))
      (not (<= j_1 (- N 1)))
      (not (<= (+ i 2) j_1))
      (and
        (or
          (not (= j_0 j_1))
          (not (= i (+ i 2)))
        )
        (not (= j_0 j_1))
        (or
          (not (= i (+ i 1)))
          (not (= j_0 j_1))
        )
      )
      (not (<= (+ i 1) j_0))
      (not (< (+ i 1) N))
      (not (< (+ i 2) N))
    )
  )
  (forall ((j_0 Int) (j_1 Int))
    (or
      (not (<= j_0 (- N 1)))
      (not (<= 1 j_1))
      (and
        (not (= j_0 j_1))
        (or
          (not (= i (+ i 1)))
          (not (= j_0 j_1))
        )
        (or
          (not (= i (+ i 1)))
          (not (= j_0 (- j_1 1)))
        )
      )
      (not (<= j_1 (- N 1)))
      (not (<= (+ i 2) j_1))
      (not (<= (+ i 1) j_0))
      (not (< (+ i 1) N))
    )
  )
  (forall ((j_0 Int) (j_1 Int) (k_1 Int))
    (or
      (not (<= j_0 (- N 1)))
      (not (<= 1 j_0))
      (not (<= j_1 (- N 1)))
      (not (<= (+ i 2) j_1))
      (not (<= (+ i 1) j_0))
      (not (<= k_1 (- j 1)))
      (and
        (or
          (not (= i (+ i 1)))
          (not (= j_0 k_1))
        )
        (or
          (not (= i (+ i 1)))
          (not (= j_0 j_1))
        )
        (or
          (not (= i (+ i 1)))
          (not (= (- j_0 1) j_1))
        )
        (or
          (not (= j_0 j_1))
          (not (= i (+ k_1 1)))
        )
      )
      (not (<= (+ i 2) k_1))
    )
  )
  (forall ((j_0 Int) (j_1 Int))
    (or
      (not (<= j_0 (- N 1)))
      (not (<= 1 j_1))
      (not (<= 1 j_0))
      (and
        (or
          (not (= i (+ i 1)))
          (not (= j_0 j_1))
        )
        (or
          (not (= j_0 (- j_1 1)))
          (not (= i (+ i 2)))
        )
        (or
          (not (= i (+ i 1)))
          (not (= (- j_0 1) j_1))
        )
      )
      (not (<= j_1 (- N 1)))
      (not (<= (+ i 2) j_1))
      (not (<= (+ i 1) j_0))
      (not (<= (- j_1 1) (+ i 1)))
      (not (< (+ i 2) N))
    )
  )
  (forall ((j_0 Int) (j_1 Int))
    (or
      (not (<= j_0 (- N 1)))
      (not (<= 1 j_1))
      (not (<= 1 j_0))
      (and
        (or
          (not (= i (+ i 1)))
          (not (= j_0 j_1))
        )
        (or
          (not (= j_0 (- j_1 1)))
          (not (= i (+ i 2)))
        )
        (or
          (not (= i (+ i 1)))
          (not (= (- j_0 1) j_1))
        )
      )
      (not (< (+ i 1) (- j_1 1)))
      (not (<= j_1 (- N 1)))
      (not (<= (+ i 2) j_1))
      (not (<= (+ i 1) j_0))
      (not (< (+ i 2) N))
    )
  )
  (forall ((j_0 Int) (j_1 Int))
    (or
      (not (<= j_0 (- N 1)))
      (not (<= 1 j_0))
      (not (<= j_1 (- N 1)))
      (not (<= (+ i 2) j_1))
      (not (<= (+ i 1) j_0))
      (and
        (or
          (not (= j_0 j_1))
          (not (= i (+ i 2)))
        )
        (or
          (not (= i (+ i 1)))
          (not (= j_0 j_1))
        )
        (or
          (not (= i (+ i 1)))
          (not (= (- j_0 1) j_1))
        )
      )
      (not (< (+ i 2) N))
    )
  )
  (forall ((j_0 Int) (j_1 Int))
    (or
      (and
        (or
          (not (= i (+ i 1)))
          (not (= j_0 j_1))
        )
        (or
          (not (= i (+ i 1)))
          (not (= (- j_0 1) j_1))
        )
        (or
          (not (= i (+ i 1)))
          (not (= j_0 (- j_1 1)))
        )
      )
      (not (<= j_0 (- N 1)))
      (not (<= 1 j_1))
      (not (<= 1 j_0))
      (not (<= j_1 (- N 1)))
      (not (<= (+ i 2) j_1))
      (not (<= (+ i 1) j_0))
    )
  )
))

(check-sat)